peakDumbCharging = 11100; 
Machine = anon_enum(16); 
machineSpeed = [3700,3700,3700,3700,3700,3700,3700,3700,3700,3700,3700,3700,3700,3700,3700,3700]; 
machineLoad = [3700,3700,3700,3700,3700,3700,3700,3700,3700,3700,3700,3700,3700,3700,3700,3700]; 
Car = anon_enum(9); 
demandCar = [13520,34880,6440,9480,11360,13320,3400,4240,11120]; 
arrivalCar = [69,68,67,64,61,53,50,50,46]; 
departureCar = [74,81,71,68,66,61,61,53,53]; 
